100
3225
3 117
41 65
49 34
23 58
8 105
68 78
23 113
63 75
59 146
67 72
35 43
23 11
1 98
90 134
1 86
16 103
79 39
83 37
45 143
23 56
55 171
42 166
19 147
46 186
78 12
93 180
25 155
22 121
17 54
47 33
35 84
14 66
96 177
12 77
67 129
59 58
63 186
69 137
84 125
4 109
50 96
33 76
78 52
69 170
18 32
2 154
34 108
35 57
31 45
45 79
78 185
19 171
19 46
68 87
35 138
72 151
75 98
10 10
79 163
45 14
74 33
7 53
88 16
44 149
62 178
36 51
52 196
81 155
66 91
48 78
78 146
95 54
34 130
4 127
72 127
47 21
4 11
82 47
43 177
16 76
11 37
23 43
89 160
23 166
49 185
88 25
88 57
44 120
75 83
39 50
86 51
39 114
31 189
73 51
56 65
17 47
25 117
13 87
5 113
59 130
